SYSTEM = Si
ENCUT = 400
PREC  = Accurate
