Si
1.0
3.84 0.00 0.00
0.00 3.84 0.00
0.00 0.00 3.84
Si
1
direct
0.00 0.00 0.00
